   gamma-Fe4N Cubic	                    
    0.997298612    
     3.7900000000000000    0.0000000000000000    0.0000000000000000
     0.0000000000000000    3.7900000000000000    0.0000000000000000
     0.0000000000000000    0.0000000000000000    3.7900000000000000
   Fe   N 
     4     1
Direct
    0.0    0.0   0.0
  0.0    0.5   0.5
  0.5    0.5   0.0
  0.5    0.0   0.5
  0.5    0.5   0.5
